64 62 51 76 19 23 75 97 59 87 9 10 13 16 17 47 73 7 46 5 3 1 70 
81 39 36 42 44 43 40 38 41 54 96 94 84 85 63 89 18 48 21 25 83 
2 45 4 100 
91 92 34 31 29 27 26 28 33 30 32 50 67 95 56 66 
69 88 55 68 61 37 35 72 71 93 80 
65 99 57 22 20 49 24 74 58 77 86 52 90 
82 11 15 14 12 78 79 8 6 60 53 98 
